
ISTART = 0
ICHARG = 2
ENCUT = 350
ISMEAR = 0
SIGMA = 0.1
EDIFF=1E-5
EDIFFG=-0.01
PREC = Accurate
IALGO=48
NSW = 1
IBRION = 8
ISIF = 2
#The Output File
LWAVE = .FALSE.
LCHARG = .FALSE.
LREAL=.FALSE.
ADDGRID=.TRUE